NAME: tsp5_10
COMMENT: 5-tsp problem (Padberg/Rinaldi)
TYPE: TSP
DIMENSION: 5
EDGE_WEIGHT_TYPE : EUC_2D
NODE_COORD_SECTION
1.00 39.38 25.38
2.00 4.24 16.82
3.00 27.86 26.88
4.00 9.87 17.24
5.00 22.35 33.73
